instances/knapsack/discrete/knapsack_80_9.kp
31918
80
348

46 4.6 4
54 5.4 25
32 3.2 6
13 1.3 94
34 3.4 44
16 1.6 95
79 7.9 12
90 9.0 46
79 7.9 29
16 1.6 85
6 0.6 41
33 3.3 53
86 8.6 93
62 6.2 100
23 2.3 5
55 5.5 66
11 1.1 60
90 9.0 48
39 3.9 89
16 1.6 48
75 7.5 92
46 4.6 1
62 6.2 54
13 1.3 86
87 8.7 7
86 8.6 85
20 2.0 98
58 5.8 98
48 4.8 36
45 4.5 83
20 2.0 83
62 6.2 26
86 8.6 54
31 3.1 17
58 5.8 2
11 1.1 15
54 5.4 67
79 7.9 41
14 1.4 17
37 3.7 2
53 5.3 74
48 4.8 56
4 0.4 12
92 9.2 93
73 7.3 53
65 6.5 9
84 8.4 99
12 1.2 11
57 5.7 99
78 7.8 36
9 0.9 93
38 3.8 85
35 3.5 73
18 1.8 27
7 0.7 78
70 7.0 32
23 2.3 13
61 6.1 50
98 9.8 74
32 3.2 45
7 0.7 70
33 3.3 4
98 9.8 88
65 6.5 12
18 1.8 61
42 4.2 91
23 2.3 95
37 3.7 100
74 7.4 3
20 2.0 92
36 3.6 11
64 6.4 93
96 9.6 31
1 0.1 40
78 7.8 17
7 0.7 100
61 6.1 84
1 0.1 51
15 1.5 78
49 4.9 14

65825
398

[4.53 1.14 1.25 3.3 2.17 4.55 3.98 0.84 0.41 4.58 1.17 0.67 0.19 3.45 2.4 0.63 0.37 4.96 0.16 3.52 4.01 4.41 4.32 2.19 4.87 4.95 4.43 2.3 0.43 4.15 1.4 1.22 3.63 3.53 1.41 2.03 1.62 3.38 4.14 4.42 4.37 2.57 3.55 1.73 3.93 0.9 3.04 2.79 3.14 4.28 1.19 2.65 3.84 2.1 3.92 3.87 3.69 4.37 1.5 4.81 1.52 0.59 3.17 2.64 2.99 3.43 1.66 3.71 3.37 4.21 1.79 4.77 1.19 4.87 1.19 2.39 3.17 2.5 3.94 2.88]

[25 46 84 13 30 67 51 73 27 92 37 89 62 30 38 70 71 90 43 16 51 9 50 4 86 22 52 69 55 69 19 13 41 51 94 15 98 38 86 68 81 3 12 55 97 8 23 39 85 74 8 42 79 26 30 65 95 92 86 40 54 48 5 68 41 70 82 16 90 43 63 83 68 69 29 50 84 81 38 16]
