instances/knapsack/discrete/knapsack_80_9.lp
\ Model knapsack_80_9
\ LP format - for model browsing. Use MPS format to capture full model detail.
\ Signature: 0xf86d0bbf74a39a5e
Minimize
  - 45 x[0] - 41 x[1] - 91 x[2] - 11 x[3] - 76 x[4] - 44 x[5] - 16 x[6]
   - 74 x[7] - 81 x[8] - 9 x[9] - 38 x[10] - 58 x[11] - 46 x[12] - 53 x[13]
   - 90 x[14] - 19 x[15] - 85 x[16] - 49 x[17] - 21 x[18] - 80 x[19]
   - 92 x[20] - 50 x[21] - 27 x[22] - 43 x[23] - 52 x[24] - 81 x[25]
   - 59 x[26] - 26 x[27] - 97 x[28] - 71 x[29] - 20 x[30] - 3 x[31]
   - 87 x[32] - 6 x[33] - 66 x[34] - 24 x[35] - 28 x[36] - 10 x[37]
   - 33 x[38] - 82 x[39] - 43 x[40] - 32 x[41] - 40 x[42] - 30 x[43]
   - 33 x[44] - 10 x[45] - 47 x[46] - 11 x[47] - 31 x[48] - 52 x[49]
   - 38 x[50] - 77 x[51] - 90 x[52] - 36 x[53] - 99 x[54] - 37 x[55]
   - 73 x[56] - 39 x[57] - 31 x[58] - 82 x[59] - 67 x[60] - 17 x[61]
   - 28 x[62] - 40 x[63] - 45 x[64] - 16 x[65] - 56 x[66] - 28 x[67]
   - 7 x[68] - 72 x[69] - 8 x[70] - 62 x[71] - 60 x[72] - 84 x[73]
   - 97 x[74] - 85 x[75] - 49 x[76] - 88 x[77] - 15 x[78] - 86 x[79]
Subject To
 primal_upper: 64 x[0] + 17 x[1] + 47 x[2] + 80 x[3] + 21 x[4] + 86 x[5]
   + 14 x[6] + 40 x[7] + 34 x[8] + 95 x[9] + 52 x[10] + 40 x[11] + 85 x[12]
   + 21 x[13] + 5 x[14] + x[15] + 78 x[16] + 93 x[17] + 74 x[18] + 3 x[19]
   + 34 x[20] + 32 x[21] + 85 x[22] + 83 x[23] + 93 x[24] + 81 x[25]
   + 71 x[26] + 44 x[27] + 22 x[28] + 76 x[29] + 18 x[30] + 56 x[31]
   + 4 x[32] + 2 x[33] + 93 x[34] + 74 x[35] + 29 x[36] + 25 x[37]
   + 37 x[38] + 95 x[39] + 12 x[40] + 30 x[41] + 51 x[42] + 66 x[43]
   + 60 x[44] + 51 x[45] + 34 x[46] + 58 x[47] + 4 x[48] + 49 x[49]
   + 47 x[50] + 85 x[51] + 82 x[52] + 89 x[53] + 41 x[54] + 80 x[55]
   + 58 x[56] + 95 x[57] + 25 x[58] + 99 x[59] + 21 x[60] + 47 x[61]
   + 56 x[62] + 47 x[63] + 32 x[64] + 33 x[65] + 61 x[66] + 11 x[67]
   + 49 x[68] + 34 x[69] + 2 x[70] + 66 x[71] + 83 x[72] + 92 x[73]
   + 56 x[74] + 13 x[75] + 87 x[76] + 28 x[77] + 25 x[78] + 91 x[79]
   + 6.4 r[0] + 1.7 r[1] + 4.7 r[2] + 8 r[3] + 2.1 r[4] + 8.6 r[5]
   + 1.4 r[6] + 4 r[7] + 3.4 r[8] + 9.5 r[9] + 5.2 r[10] + 4 r[11]
   + 8.5 r[12] + 2.1 r[13] + 0.5 r[14] + 0.1 r[15] + 7.8 r[16] + 9.3 r[17]
   + 7.4 r[18] + 0.3 r[19] + 3.4 r[20] + 3.2 r[21] + 8.5 r[22] + 8.3 r[23]
   + 9.3 r[24] + 8.1 r[25] + 7.1 r[26] + 4.4 r[27] + 2.2 r[28] + 7.6 r[29]
   + 1.8 r[30] + 5.6 r[31] + 0.4 r[32] + 0.2 r[33] + 9.3 r[34] + 7.4 r[35]
   + 2.9 r[36] + 2.5 r[37] + 3.7 r[38] + 9.5 r[39] + 1.2 r[40] + 3 r[41]
   + 5.1 r[42] + 6.6 r[43] + 6 r[44] + 5.1 r[45] + 3.4 r[46] + 5.8 r[47]
   + 0.4 r[48] + 4.9 r[49] + 4.7 r[50] + 8.5 r[51] + 8.2 r[52] + 8.9 r[53]
   + 4.1 r[54] + 8 r[55] + 5.8 r[56] + 9.5 r[57] + 2.5 r[58] + 9.9 r[59]
   + 2.1 r[60] + 4.7 r[61] + 5.6 r[62] + 4.7 r[63] + 3.2 r[64] + 3.3 r[65]
   + 6.1 r[66] + 1.1 r[67] + 4.9 r[68] + 3.4 r[69] + 0.2 r[70] + 6.6 r[71]
   + 8.3 r[72] + 9.2 r[73] + 5.6 r[74] + 1.3 r[75] + 8.7 r[76] + 2.8 r[77]
   + 2.5 r[78] + 9.1 r[79] <= 386
 primal_lower: 2.20088614775077 x[0] + 2.018589819988318 x[1]
   + 1.841055341336867 x[2] + 2.408927910708217 x[3]
   + 2.566304162915896 x[4] + 0.4106613392909861 x[5]
   + 1.678979859924018 x[6] + 0.1567502533148496 x[7]
   + 0.5603666044418596 x[8] + 0.4331639478355102 x[9]
   + 1.075234503491846 x[10] + 3.524183555366586 x[11]
   + 2.311986343217402 x[12] + 0.8615946833825353 x[13]
   + 0.3543634065420887 x[14] + 2.465211808266145 x[15]
   + 2.838176456010181 x[16] + 2.341984371731617 x[17]
   + 1.764600042747308 x[18] + 4.198557971082189 x[19]
   + 0.8289458505722451 x[20] + 1.105738074214047 x[21]
   + 1.254910644783099 x[22] + 0.7844296984031623 x[23]
   + 3.954715091322995 x[24] + 1.380322357459913 x[25]
   + 0.7010865315374746 x[26] + 4.541015381894796 x[27]
   + 2.864268331452389 x[28] + 0.3272495366872232 x[29]
   + 0.9145260701421964 x[30] + 2.938142660026666 x[31]
   + 3.226615735282979 x[32] + 3.136439849523459 x[33]
   + 4.54440672278031 x[34] + 1.146614098346499 x[35]
   + 1.871078693331932 x[36] + 1.645425893910974 x[37]
   + 3.802198161927211 x[38] + 0.4112621485198342 x[39]
   + 2.081651668047338 x[40] + 1.469793231266862 x[41]
   + 0.4249797225007014 x[42] + 2.0422470367563 x[43]
   + 0.9090525140442318 x[44] + 1.300108717293295 x[45]
   + 0.4528585053026632 x[46] + 2.396423707585305 x[47]
   + 3.670673609452543 x[48] + 2.35822560820876 x[49]
   + 3.09544597662329 x[50] + 2.623202143113318 x[51]
   + 0.7579283961013241 x[52] + 1.24599309878856 x[53]
   + 0.0314513297125901 x[54] + 1.857419414113525 x[55]
   + 2.281282119581919 x[56] + 3.306780585027582 x[57]
   + 1.660905410849334 x[58] + 3.255420827612617 x[59]
   + 1.696340400485519 x[60] + 0.3447066278415665 x[61]
   + 2.858688617107915 x[62] + 3.182481791064332 x[63]
   + 1.928837236740754 x[64] + 0.3411870256154608 x[65]
   + 4.342179922303007 x[66] + 1.516009408531612 x[67]
   + 3.869808517638294 x[68] + 2.12124613281166 x[69]
   + 3.365717885049504 x[70] + 1.779143460791558 x[71]
   + 3.39315142644107 x[72] + 1.517170349813716 x[73]
   + 0.9594099186127178 x[74] + 4.050119919017816 x[75]
   + 4.473791461418722 x[76] + 2.155019370677294 x[77]
   + 1.365929579453473 x[78] + 3.251893419874847 x[79] + 83 u[0] + 64 u[1]
   + 86 u[2] + 67 u[3] + 100 u[4] + 5 u[5] + 33 u[6] + 51 u[7] + 41 u[8]
   + 6 u[9] + 51 u[10] + 71 u[11] + 68 u[12] + 60 u[13] + 8 u[14]
   + 24 u[15] + 57 u[16] + 80 u[17] + 65 u[18] + 10 u[19] + 25 u[20]
   + 43 u[21] + 72 u[22] + 30 u[23] + 64 u[24] + 84 u[25] + 6 u[26]
   + 19 u[27] + 49 u[28] + 59 u[29] + 49 u[30] + 31 u[31] + 39 u[32]
   + 57 u[33] + 92 u[34] + 61 u[35] + 28 u[36] + 44 u[37] + 84 u[38]
   + 98 u[39] + 67 u[40] + 69 u[41] + 94 u[42] + 21 u[43] + 51 u[44]
   + 70 u[45] + 77 u[46] + 17 u[47] + 11 u[48] + 20 u[49] + 10 u[50]
   + 8 u[51] + 25 u[52] + 40 u[53] + 12 u[54] + 55 u[55] + 69 u[56]
   + 2 u[57] + 12 u[58] + 42 u[59] + 56 u[60] + 10 u[61] + 59 u[62]
   + 54 u[63] + 67 u[64] + 52 u[65] + 88 u[66] + 6 u[67] + 88 u[68]
   + 69 u[69] + 17 u[70] + 33 u[71] + 18 u[72] + 43 u[73] + 67 u[74]
   + 44 u[75] + 82 u[76] + 87 u[77] + 52 u[78] + 2 u[79] <= 70493
 mccormick1[0]: - u[0] + r[0] <= 0
 mccormick1[1]: - u[1] + r[1] <= 0
 mccormick1[2]: - u[2] + r[2] <= 0
 mccormick1[3]: - u[3] + r[3] <= 0
 mccormick1[4]: - u[4] + r[4] <= 0
 mccormick1[5]: - u[5] + r[5] <= 0
 mccormick1[6]: - u[6] + r[6] <= 0
 mccormick1[7]: - u[7] + r[7] <= 0
 mccormick1[8]: - u[8] + r[8] <= 0
 mccormick1[9]: - u[9] + r[9] <= 0
 mccormick1[10]: - u[10] + r[10] <= 0
 mccormick1[11]: - u[11] + r[11] <= 0
 mccormick1[12]: - u[12] + r[12] <= 0
 mccormick1[13]: - u[13] + r[13] <= 0
 mccormick1[14]: - u[14] + r[14] <= 0
 mccormick1[15]: - u[15] + r[15] <= 0
 mccormick1[16]: - u[16] + r[16] <= 0
 mccormick1[17]: - u[17] + r[17] <= 0
 mccormick1[18]: - u[18] + r[18] <= 0
 mccormick1[19]: - u[19] + r[19] <= 0
 mccormick1[20]: - u[20] + r[20] <= 0
 mccormick1[21]: - u[21] + r[21] <= 0
 mccormick1[22]: - u[22] + r[22] <= 0
 mccormick1[23]: - u[23] + r[23] <= 0
 mccormick1[24]: - u[24] + r[24] <= 0
 mccormick1[25]: - u[25] + r[25] <= 0
 mccormick1[26]: - u[26] + r[26] <= 0
 mccormick1[27]: - u[27] + r[27] <= 0
 mccormick1[28]: - u[28] + r[28] <= 0
 mccormick1[29]: - u[29] + r[29] <= 0
 mccormick1[30]: - u[30] + r[30] <= 0
 mccormick1[31]: - u[31] + r[31] <= 0
 mccormick1[32]: - u[32] + r[32] <= 0
 mccormick1[33]: - u[33] + r[33] <= 0
 mccormick1[34]: - u[34] + r[34] <= 0
 mccormick1[35]: - u[35] + r[35] <= 0
 mccormick1[36]: - u[36] + r[36] <= 0
 mccormick1[37]: - u[37] + r[37] <= 0
 mccormick1[38]: - u[38] + r[38] <= 0
 mccormick1[39]: - u[39] + r[39] <= 0
 mccormick1[40]: - u[40] + r[40] <= 0
 mccormick1[41]: - u[41] + r[41] <= 0
 mccormick1[42]: - u[42] + r[42] <= 0
 mccormick1[43]: - u[43] + r[43] <= 0
 mccormick1[44]: - u[44] + r[44] <= 0
 mccormick1[45]: - u[45] + r[45] <= 0
 mccormick1[46]: - u[46] + r[46] <= 0
 mccormick1[47]: - u[47] + r[47] <= 0
 mccormick1[48]: - u[48] + r[48] <= 0
 mccormick1[49]: - u[49] + r[49] <= 0
 mccormick1[50]: - u[50] + r[50] <= 0
 mccormick1[51]: - u[51] + r[51] <= 0
 mccormick1[52]: - u[52] + r[52] <= 0
 mccormick1[53]: - u[53] + r[53] <= 0
 mccormick1[54]: - u[54] + r[54] <= 0
 mccormick1[55]: - u[55] + r[55] <= 0
 mccormick1[56]: - u[56] + r[56] <= 0
 mccormick1[57]: - u[57] + r[57] <= 0
 mccormick1[58]: - u[58] + r[58] <= 0
 mccormick1[59]: - u[59] + r[59] <= 0
 mccormick1[60]: - u[60] + r[60] <= 0
 mccormick1[61]: - u[61] + r[61] <= 0
 mccormick1[62]: - u[62] + r[62] <= 0
 mccormick1[63]: - u[63] + r[63] <= 0
 mccormick1[64]: - u[64] + r[64] <= 0
 mccormick1[65]: - u[65] + r[65] <= 0
 mccormick1[66]: - u[66] + r[66] <= 0
 mccormick1[67]: - u[67] + r[67] <= 0
 mccormick1[68]: - u[68] + r[68] <= 0
 mccormick1[69]: - u[69] + r[69] <= 0
 mccormick1[70]: - u[70] + r[70] <= 0
 mccormick1[71]: - u[71] + r[71] <= 0
 mccormick1[72]: - u[72] + r[72] <= 0
 mccormick1[73]: - u[73] + r[73] <= 0
 mccormick1[74]: - u[74] + r[74] <= 0
 mccormick1[75]: - u[75] + r[75] <= 0
 mccormick1[76]: - u[76] + r[76] <= 0
 mccormick1[77]: - u[77] + r[77] <= 0
 mccormick1[78]: - u[78] + r[78] <= 0
 mccormick1[79]: - u[79] + r[79] <= 0
 mccormick2[0]: - x[0] + r[0] <= 0
 mccormick2[1]: - x[1] + r[1] <= 0
 mccormick2[2]: - x[2] + r[2] <= 0
 mccormick2[3]: - x[3] + r[3] <= 0
 mccormick2[4]: - x[4] + r[4] <= 0
 mccormick2[5]: - x[5] + r[5] <= 0
 mccormick2[6]: - x[6] + r[6] <= 0
 mccormick2[7]: - x[7] + r[7] <= 0
 mccormick2[8]: - x[8] + r[8] <= 0
 mccormick2[9]: - x[9] + r[9] <= 0
 mccormick2[10]: - x[10] + r[10] <= 0
 mccormick2[11]: - x[11] + r[11] <= 0
 mccormick2[12]: - x[12] + r[12] <= 0
 mccormick2[13]: - x[13] + r[13] <= 0
 mccormick2[14]: - x[14] + r[14] <= 0
 mccormick2[15]: - x[15] + r[15] <= 0
 mccormick2[16]: - x[16] + r[16] <= 0
 mccormick2[17]: - x[17] + r[17] <= 0
 mccormick2[18]: - x[18] + r[18] <= 0
 mccormick2[19]: - x[19] + r[19] <= 0
 mccormick2[20]: - x[20] + r[20] <= 0
 mccormick2[21]: - x[21] + r[21] <= 0
 mccormick2[22]: - x[22] + r[22] <= 0
 mccormick2[23]: - x[23] + r[23] <= 0
 mccormick2[24]: - x[24] + r[24] <= 0
 mccormick2[25]: - x[25] + r[25] <= 0
 mccormick2[26]: - x[26] + r[26] <= 0
 mccormick2[27]: - x[27] + r[27] <= 0
 mccormick2[28]: - x[28] + r[28] <= 0
 mccormick2[29]: - x[29] + r[29] <= 0
 mccormick2[30]: - x[30] + r[30] <= 0
 mccormick2[31]: - x[31] + r[31] <= 0
 mccormick2[32]: - x[32] + r[32] <= 0
 mccormick2[33]: - x[33] + r[33] <= 0
 mccormick2[34]: - x[34] + r[34] <= 0
 mccormick2[35]: - x[35] + r[35] <= 0
 mccormick2[36]: - x[36] + r[36] <= 0
 mccormick2[37]: - x[37] + r[37] <= 0
 mccormick2[38]: - x[38] + r[38] <= 0
 mccormick2[39]: - x[39] + r[39] <= 0
 mccormick2[40]: - x[40] + r[40] <= 0
 mccormick2[41]: - x[41] + r[41] <= 0
 mccormick2[42]: - x[42] + r[42] <= 0
 mccormick2[43]: - x[43] + r[43] <= 0
 mccormick2[44]: - x[44] + r[44] <= 0
 mccormick2[45]: - x[45] + r[45] <= 0
 mccormick2[46]: - x[46] + r[46] <= 0
 mccormick2[47]: - x[47] + r[47] <= 0
 mccormick2[48]: - x[48] + r[48] <= 0
 mccormick2[49]: - x[49] + r[49] <= 0
 mccormick2[50]: - x[50] + r[50] <= 0
 mccormick2[51]: - x[51] + r[51] <= 0
 mccormick2[52]: - x[52] + r[52] <= 0
 mccormick2[53]: - x[53] + r[53] <= 0
 mccormick2[54]: - x[54] + r[54] <= 0
 mccormick2[55]: - x[55] + r[55] <= 0
 mccormick2[56]: - x[56] + r[56] <= 0
 mccormick2[57]: - x[57] + r[57] <= 0
 mccormick2[58]: - x[58] + r[58] <= 0
 mccormick2[59]: - x[59] + r[59] <= 0
 mccormick2[60]: - x[60] + r[60] <= 0
 mccormick2[61]: - x[61] + r[61] <= 0
 mccormick2[62]: - x[62] + r[62] <= 0
 mccormick2[63]: - x[63] + r[63] <= 0
 mccormick2[64]: - x[64] + r[64] <= 0
 mccormick2[65]: - x[65] + r[65] <= 0
 mccormick2[66]: - x[66] + r[66] <= 0
 mccormick2[67]: - x[67] + r[67] <= 0
 mccormick2[68]: - x[68] + r[68] <= 0
 mccormick2[69]: - x[69] + r[69] <= 0
 mccormick2[70]: - x[70] + r[70] <= 0
 mccormick2[71]: - x[71] + r[71] <= 0
 mccormick2[72]: - x[72] + r[72] <= 0
 mccormick2[73]: - x[73] + r[73] <= 0
 mccormick2[74]: - x[74] + r[74] <= 0
 mccormick2[75]: - x[75] + r[75] <= 0
 mccormick2[76]: - x[76] + r[76] <= 0
 mccormick2[77]: - x[77] + r[77] <= 0
 mccormick2[78]: - x[78] + r[78] <= 0
 mccormick2[79]: - x[79] + r[79] <= 0
 mccormick3[0]: x[0] + u[0] - r[0] <= 1
 mccormick3[1]: x[1] + u[1] - r[1] <= 1
 mccormick3[2]: x[2] + u[2] - r[2] <= 1
 mccormick3[3]: x[3] + u[3] - r[3] <= 1
 mccormick3[4]: x[4] + u[4] - r[4] <= 1
 mccormick3[5]: x[5] + u[5] - r[5] <= 1
 mccormick3[6]: x[6] + u[6] - r[6] <= 1
 mccormick3[7]: x[7] + u[7] - r[7] <= 1
 mccormick3[8]: x[8] + u[8] - r[8] <= 1
 mccormick3[9]: x[9] + u[9] - r[9] <= 1
 mccormick3[10]: x[10] + u[10] - r[10] <= 1
 mccormick3[11]: x[11] + u[11] - r[11] <= 1
 mccormick3[12]: x[12] + u[12] - r[12] <= 1
 mccormick3[13]: x[13] + u[13] - r[13] <= 1
 mccormick3[14]: x[14] + u[14] - r[14] <= 1
 mccormick3[15]: x[15] + u[15] - r[15] <= 1
 mccormick3[16]: x[16] + u[16] - r[16] <= 1
 mccormick3[17]: x[17] + u[17] - r[17] <= 1
 mccormick3[18]: x[18] + u[18] - r[18] <= 1
 mccormick3[19]: x[19] + u[19] - r[19] <= 1
 mccormick3[20]: x[20] + u[20] - r[20] <= 1
 mccormick3[21]: x[21] + u[21] - r[21] <= 1
 mccormick3[22]: x[22] + u[22] - r[22] <= 1
 mccormick3[23]: x[23] + u[23] - r[23] <= 1
 mccormick3[24]: x[24] + u[24] - r[24] <= 1
 mccormick3[25]: x[25] + u[25] - r[25] <= 1
 mccormick3[26]: x[26] + u[26] - r[26] <= 1
 mccormick3[27]: x[27] + u[27] - r[27] <= 1
 mccormick3[28]: x[28] + u[28] - r[28] <= 1
 mccormick3[29]: x[29] + u[29] - r[29] <= 1
 mccormick3[30]: x[30] + u[30] - r[30] <= 1
 mccormick3[31]: x[31] + u[31] - r[31] <= 1
 mccormick3[32]: x[32] + u[32] - r[32] <= 1
 mccormick3[33]: x[33] + u[33] - r[33] <= 1
 mccormick3[34]: x[34] + u[34] - r[34] <= 1
 mccormick3[35]: x[35] + u[35] - r[35] <= 1
 mccormick3[36]: x[36] + u[36] - r[36] <= 1
 mccormick3[37]: x[37] + u[37] - r[37] <= 1
 mccormick3[38]: x[38] + u[38] - r[38] <= 1
 mccormick3[39]: x[39] + u[39] - r[39] <= 1
 mccormick3[40]: x[40] + u[40] - r[40] <= 1
 mccormick3[41]: x[41] + u[41] - r[41] <= 1
 mccormick3[42]: x[42] + u[42] - r[42] <= 1
 mccormick3[43]: x[43] + u[43] - r[43] <= 1
 mccormick3[44]: x[44] + u[44] - r[44] <= 1
 mccormick3[45]: x[45] + u[45] - r[45] <= 1
 mccormick3[46]: x[46] + u[46] - r[46] <= 1
 mccormick3[47]: x[47] + u[47] - r[47] <= 1
 mccormick3[48]: x[48] + u[48] - r[48] <= 1
 mccormick3[49]: x[49] + u[49] - r[49] <= 1
 mccormick3[50]: x[50] + u[50] - r[50] <= 1
 mccormick3[51]: x[51] + u[51] - r[51] <= 1
 mccormick3[52]: x[52] + u[52] - r[52] <= 1
 mccormick3[53]: x[53] + u[53] - r[53] <= 1
 mccormick3[54]: x[54] + u[54] - r[54] <= 1
 mccormick3[55]: x[55] + u[55] - r[55] <= 1
 mccormick3[56]: x[56] + u[56] - r[56] <= 1
 mccormick3[57]: x[57] + u[57] - r[57] <= 1
 mccormick3[58]: x[58] + u[58] - r[58] <= 1
 mccormick3[59]: x[59] + u[59] - r[59] <= 1
 mccormick3[60]: x[60] + u[60] - r[60] <= 1
 mccormick3[61]: x[61] + u[61] - r[61] <= 1
 mccormick3[62]: x[62] + u[62] - r[62] <= 1
 mccormick3[63]: x[63] + u[63] - r[63] <= 1
 mccormick3[64]: x[64] + u[64] - r[64] <= 1
 mccormick3[65]: x[65] + u[65] - r[65] <= 1
 mccormick3[66]: x[66] + u[66] - r[66] <= 1
 mccormick3[67]: x[67] + u[67] - r[67] <= 1
 mccormick3[68]: x[68] + u[68] - r[68] <= 1
 mccormick3[69]: x[69] + u[69] - r[69] <= 1
 mccormick3[70]: x[70] + u[70] - r[70] <= 1
 mccormick3[71]: x[71] + u[71] - r[71] <= 1
 mccormick3[72]: x[72] + u[72] - r[72] <= 1
 mccormick3[73]: x[73] + u[73] - r[73] <= 1
 mccormick3[74]: x[74] + u[74] - r[74] <= 1
 mccormick3[75]: x[75] + u[75] - r[75] <= 1
 mccormick3[76]: x[76] + u[76] - r[76] <= 1
 mccormick3[77]: x[77] + u[77] - r[77] <= 1
 mccormick3[78]: x[78] + u[78] - r[78] <= 1
 mccormick3[79]: x[79] + u[79] - r[79] <= 1
Bounds
Binaries
 x[0] x[1] x[2] x[3] x[4] x[5] x[6] x[7] x[8] x[9] x[10] x[11] x[12] x[13]
 x[14] x[15] x[16] x[17] x[18] x[19] x[20] x[21] x[22] x[23] x[24] x[25]
 x[26] x[27] x[28] x[29] x[30] x[31] x[32] x[33] x[34] x[35] x[36] x[37]
 x[38] x[39] x[40] x[41] x[42] x[43] x[44] x[45] x[46] x[47] x[48] x[49]
 x[50] x[51] x[52] x[53] x[54] x[55] x[56] x[57] x[58] x[59] x[60] x[61]
 x[62] x[63] x[64] x[65] x[66] x[67] x[68] x[69] x[70] x[71] x[72] x[73]
 x[74] x[75] x[76] x[77] x[78] x[79] u[0] u[1] u[2] u[3] u[4] u[5] u[6]
 u[7] u[8] u[9] u[10] u[11] u[12] u[13] u[14] u[15] u[16] u[17] u[18] u[19]
 u[20] u[21] u[22] u[23] u[24] u[25] u[26] u[27] u[28] u[29] u[30] u[31]
 u[32] u[33] u[34] u[35] u[36] u[37] u[38] u[39] u[40] u[41] u[42] u[43]
 u[44] u[45] u[46] u[47] u[48] u[49] u[50] u[51] u[52] u[53] u[54] u[55]
 u[56] u[57] u[58] u[59] u[60] u[61] u[62] u[63] u[64] u[65] u[66] u[67]
 u[68] u[69] u[70] u[71] u[72] u[73] u[74] u[75] u[76] u[77] u[78] u[79]
 r[0] r[1] r[2] r[3] r[4] r[5] r[6] r[7] r[8] r[9] r[10] r[11] r[12] r[13]
 r[14] r[15] r[16] r[17] r[18] r[19] r[20] r[21] r[22] r[23] r[24] r[25]
 r[26] r[27] r[28] r[29] r[30] r[31] r[32] r[33] r[34] r[35] r[36] r[37]
 r[38] r[39] r[40] r[41] r[42] r[43] r[44] r[45] r[46] r[47] r[48] r[49]
 r[50] r[51] r[52] r[53] r[54] r[55] r[56] r[57] r[58] r[59] r[60] r[61]
 r[62] r[63] r[64] r[65] r[66] r[67] r[68] r[69] r[70] r[71] r[72] r[73]
 r[74] r[75] r[76] r[77] r[78] r[79]
End
